
dimension       3
boundary        p p p

units           real

atom_style      charge
read_data       C:\Users\user\Documents\School\FFparamOpt\reax_ff_sim\ceo2_reaxff\geometry_file\fluorite_scaled\ceO2_fluorite_1.000.lmp

pair_style      reaxff lmp_control
pair_coeff      * * C:\Users\user\Documents\School\FFparamOpt\reax_ff_sim\ffield.reax O Ce

neighbor        2 bin
neigh_modify    every 10 delay 0 check no

fix             1 all nve
fix             2 all qeq/reax 1 0.0 10.0 1e-6 reaxff
fix             3 all temp/berendsen 500.0 500.0 100.0 #Every body seems to be using it

timestep        0.25
thermo_style custom step pe lx ly lz vol press pxx pyy pzz
thermo 100

#dump           1 all atom 30 dump.reax.feoh -1751.4783

run             2000
