# Find minimum energy fcc configuration

# ---------- Initialize Simulation --------------------- 
clear 
units real
dimension 3 
boundary p p p  # Setting all boundaries to "s" (shrink-wrapped)
atom_style charge
atom_modify map array

# ---------- Create Atoms ---------------------
region box block -1 1 -1 1 -1 1
# Data from https://materials.springer.com/isp/crystallographic/docs/sd_1923902
# use atomsk 'ceo2_structure.cif lammps' to convert the file
read_data geometry_file/CeO2_mp-20194_conventional_standard.lmp

# ---------- Define Interatomic Potential ---------------------
pair_style reaxff NULL checkqeq yes # Enable charge equilibration (QEq)
pair_coeff * * ffield.reax O Ce
fix qeq all qeq/reaxff 1 0.0 10.0 1.0e-6 reaxff
neighbor 2.0 bin 
neigh_modify delay 10 check yes 
 
# ---------- Define Settings --------------------- 
compute eng all pe/atom 
compute eatoms all reduce sum c_eng 

# ---------- Add Electric Field ---------------------
# Apply force to all atoms in the direction of the electric field
#fix efield all efield 5.0 0.0 0.0 region box

# ---------- Run Minimization --------------------- 
reset_timestep 0 
# fix 1 all box/relax iso 1.0 vmax 1
thermo 10
thermo_style custom step pe lx ly lz press pxx pyy pzz c_eatoms 
#dump mydmp all atom 1 dump_efield.lammpstrj
min_style cg 
minimize 1e-25 1e-25 5000 10000 

variable natoms equal "count(all)" 
variable teng equal "c_eatoms"
variable length equal "lx"
variable ecoh equal "v_teng/v_natoms"

print "Total energy (eV) = ${teng};"
print "Number of atoms = ${natoms};"
print "Lattice constant (Angstoms) = ${length};"
print "Cohesive energy (eV) = ${ecoh};"

print "All done!"
