# REAXFF potential for CeO2 system
boundary        p p p
units           real

atom_style      charge
read_data data_vacancy.CeO2_111slab

# Apply the modern ReaxFF potential
pair_style      reaxff NULL checkqeq yes
pair_coeff      * * ffield.reax Ce O

neighbor        2 bin
neigh_modify    every 10 delay 0 check no

# add charge equalibrium
fix             1 all qeq/reaxff 1 0.0 10.0 1.0e-6 reaxff

dump            1 all custom 10000 steps-ut-vacancy.lammpstrj id xu yu zu  

minimize        1.0e-6 1.0e-8 1000 10000
