# REAX potential for CeO2 system
# .....
boundary       p p p
units		real

atom_style	charge
read_data vacancy_slab_368_524.lmp

pair_style	reaxff NULL checkqeq yes
pair_coeff	* * ffield.reax Ce O

neighbor	2 bin
neigh_modify	every 10 delay 0 check no

group          fixed_atom id 369 525
group non_fixed subtract all fixed_atom

# Set the velocity for atoms in the non_fixed group to correspond to 300 K
velocity non_fixed create 300.0 12345 mom yes rot yes

# Restrict the movement of fixed_atom by zeroing the velocity
velocity fixed_atom set 0.0 0.0 0.0

# add charge equalibrium
fix             1 all qeq/reaxff 1 0.0 10.0 1.0e-6 reaxff

# fix npt used Nose-Hoover thermostat and barostat
fix             2 all npt temp 300.0 300.0 100.0 iso 1.0 1.0 1000.0 # T start = T end = 300 K, P start = P stop = 1 atm

# Fix atom with index 369, 525 to not move by zeroing the force on it
fix            3 fixed_atom setforce 0.0 0.0 0.0

timestep        1.0
thermo          100000
thermo_style    custom step temp press lx ly lz

dump           1 all custom 1000 dump.lammpstrj id type x y z vx vy vz q
run            500000
write_restart restart.NPT
