# Initialize simulation
units           real
atom_style      charge

# Read the restart file from the NPT simulation
read_restart    restart.NPT

# This is wrong. I should find the way to obtain the dimensions at the end of NPT and make the box size rigid

# Apply the ReaxFF potential
pair_style	reaxff NULL checkqeq yes
pair_coeff	* * ffield.reax Ce O

# Neighbor settings
neighbor        2 bin
neigh_modify    every 10 delay 0 check no

# add charge equalibrium
fix             1 all qeq/reaxff 1 0.0 10.0 1.0e-6 reaxff

# Set up NVT ensemble
fix             3 all nvt temp 300.0 300.0 100.0   # Nose-Hoover thermostat for NVT

# Output settings
timestep        1.0
thermo          100
thermo_style    custom step temp press lx ly lz

dump            2 all custom 1000 dump_nvt.lammpstrj id type x y z vx vy vz q

# Run the NVT simulation
run             500000

write_restart   restart.NVT
