# Initialize simulation
units           real
atom_style      charge

# Read the restart file
read_restart    restart.NVT

# Apply ReaxFF potential
pair_style      reaxff NULL checkqeq yes
pair_coeff      * * ffield.reax Ce O

# Neighbor settings
neighbor        2 bin
neigh_modify    every 10 delay 0 check no

# Add charge equilibration
fix 2 all qeq/reaxff 1 0.0 10.0 1.0e-6 reaxff

# Time integration (NVE)
fix 3 all nve

# Output settings
timestep        1.0
thermo          100
thermo_style    custom step temp press lx ly lz

dump            2 all custom 1000 dump_md.lammpstrj id type x y z vx vy vz q