# 1) Initialization
units            lj
dimension 3
atom_style atomic
pair_style lj/cut 30
boundary f f f

# 2) System definition
region simulation_box block -5 5 -5 5 -5 5
create_box 1 simulation_box
create_atoms 1 random 23 512442 simulation_box

# 3) Simulation settings
mass 1 1
pair_coeff 1 1 1.0 1.0

# 4) Visualization
thermo 100
thermo_style custom step temp pe ke etotal press
dump mydmp all atom 1 dump23.lammpstrj

# 5) Run
minimize 1.0e-10 1.0e-12 10000 10000