# Initialize simulation
units           real
atom_style      charge

# Read the restart file from the NVT simulation (Same NVT file as before)
read_restart    restart.NVT

# Change boundary conditions so that efield can be applied
change_box      all boundary p p s

# Apply the ReaxFF potential
pair_style	reaxff NULL checkqeq yes
pair_coeff	* * ffield.reax Ce O

# Neighbor settings
neighbor        2 bin
neigh_modify    every 10 delay 0 check no

# add charge equalibrium
fix             1 all qeq/reaxff 1 0.0 10.0 1.0e-6 reaxff

fix             2 all nve

variable amp    equal 0.3     # amplitude of the electric field # 3 × 10^9 V/m or 0.3 V/Angstrom
variable period   equal 1e5   # period of the electric field 1e5 femtoseconds -> 1e-10 seconds -> 10 GHz
variable Eapply equal swiggle(0.0,v_amp,v_period)

fix             3 all efield 0.0 0.0 v_Eapply

timestep        1.0
thermo          25
thermo_style    custom step temp press lx ly lz

dump           1 all custom 25 dump_heat_efield.lammpstrj id type x y z vx vy vz q

run            5000000 # 5ns = 5000 ps (according to Urata's paper)
